
List of user-set options:

                                    Name   Value                used
                           compl_inf_tol = 1                     yes
                         constr_viol_tol = 1                     yes
                            dual_inf_tol = 1000                  yes
                           linear_solver = ma97                  yes
                              ma86_small = 1e-30                  no
                                  ma86_u = 0.0001                 no
                              ma97_order = best                  yes
                              ma97_small = 1e-30                 yes
                            ma97_switch1 = at_start              yes
                            ma97_switch2 = od_hd_reuse           yes
                                  ma97_u = 1e-06                 yes
                               ma97_umax = 0.5                   yes
                                max_iter = 1000                  yes
                    max_refinement_steps = 20                    yes
                    min_refinement_steps = 5                     yes
                                 mu_init = 1e-06                 yes
           mu_superlinear_decrease_power = 1.25                  yes
                   nlp_scaling_min_value = 1e-08                 yes
                        option_file_name = Preset_Case_421_pf.opt  yes
                             output_file = ./tmp/Preset_Case_421_pf.output  yes
                      print_user_options = yes                   yes
        required_infeasibility_reduction = 1                      no
                                     tol = 1e-08                 yes
                   warm_start_bound_frac = 1e-20                 yes
                   warm_start_bound_push = 1e-20                 yes
                   warm_start_init_point = yes                   yes
              warm_start_mult_bound_push = 1e-20                 yes
                warm_start_mult_init_max = 1e+40                 yes
             warm_start_slack_bound_frac = 1e-20                 yes
             warm_start_slack_bound_push = 1e-20                 yes

******************************************************************************
This program contains Ipopt, a library for large-scale nonlinear optimization.
 Ipopt is released as open source code under the Eclipse Public License (EPL).
         For more information visit http://projects.coin-or.org/Ipopt
******************************************************************************

This is Ipopt version 3.12.10, running with linear solver ma97.

Number of nonzeros in equality constraint Jacobian...:   123443
Number of nonzeros in inequality constraint Jacobian.:      213
Number of nonzeros in Lagrangian Hessian.............:    49069

Total number of variables............................:    31591
                     variables with only lower bounds:    12912
                variables with lower and upper bounds:    15130
                     variables with only upper bounds:        0
Total number of equality constraints.................:    31483
Total number of inequality constraints...............:       25
        inequality constraints with only lower bounds:        4
   inequality constraints with lower and upper bounds:        0
        inequality constraints with only upper bounds:       21

iter    objective    inf_pr   inf_du lg(mu)  ||d||  lg(rg) alpha_du alpha_pr  ls
   0 -5.3757175e+00 4.05e-03 1.02e+00  -6.0 0.00e+00    -  0.00e+00 0.00e+00   0
   1 -5.3822727e+00 5.30e+00 2.59e+01  -6.0 3.95e+05    -  7.98e-05 8.98e-04h  1
   2 -5.3826780e+00 5.30e+00 5.60e+01  -6.0 6.57e+03    -  1.89e-01 7.63e-04f  1
   3 -5.3843444e+00 5.30e+00 3.06e+02  -6.0 5.65e+04    -  3.19e-03 3.49e-04f  1
   4 -5.3749407e+00 5.28e+00 9.05e+02  -6.0 1.58e+04    -  2.91e-03 3.56e-03h  3
   5 -5.6473118e+00 7.86e+01 1.41e+05  -6.0 1.86e+04    -  5.01e-03 1.28e-01f  1
   6 -5.6455400e+00 7.82e+01 1.40e+05  -6.0 1.56e+04    -  7.29e-03 6.76e-03h  1
   7 -5.6359684e+00 5.20e+01 8.08e+04  -6.0 2.36e+03    -  3.28e-04 4.31e-01h  1
   8 -5.6593590e+00 3.28e+01 5.10e+04  -6.0 3.63e+03    -  1.30e-01 3.69e-01h  1
   9 -5.7842137e+00 2.31e+01 3.60e+04  -6.0 1.41e+03    -  2.65e-01 2.95e-01h  1
iter    objective    inf_pr   inf_du lg(mu)  ||d||  lg(rg) alpha_du alpha_pr  ls
  10 -5.9030038e+00 1.22e+01 1.89e+04  -6.0 5.01e+02    -  5.13e-01 4.74e-01h  1
  11 -5.9334692e+00 9.07e+00 1.41e+04  -6.0 6.75e+02    -  9.76e-02 2.54e-01h  1
  12 -5.9453174e+00 6.51e+00 1.19e+04  -6.0 5.50e+02    -  4.95e-01 2.82e-01h  1
  13 -5.9539479e+00 4.13e+00 9.55e+03  -6.0 4.82e+02    -  6.63e-01 3.66e-01h  1
  14 -5.9614237e+00 1.18e+00 1.80e+03  -6.0 3.85e+02    -  7.79e-01 1.00e+00h  1
  15 -5.9602476e+00 9.59e-01 3.14e+05  -6.0 4.31e+01  -4.0 8.50e-03 1.93e-01h  1
  16 -5.9499736e+00 8.06e-03 2.34e+02  -6.0 3.42e+00  -4.5 6.51e-01 1.00e+00h  1
  17 -5.9659679e+00 7.07e-01 1.59e+03  -6.0 3.46e+03    -  2.46e-01 1.07e-01h  1
  18 -5.9709791e+00 6.56e-01 7.71e+03  -6.0 7.50e+02    -  9.89e-01 8.50e-02h  1
  19 -6.0094642e+00 6.81e+00 9.62e+03  -6.0 8.61e+02    -  1.00e+00 8.95e-01h  1
iter    objective    inf_pr   inf_du lg(mu)  ||d||  lg(rg) alpha_du alpha_pr  ls
  20 -6.0108656e+00 5.67e+00 6.81e+04  -6.0 9.88e+02    -  9.77e-03 1.68e-01h  1
  21 -6.0111017e+00 3.52e+00 7.10e+04  -6.0 3.68e+02    -  6.30e-01 4.51e-01h  1
  22 -6.0111017e+00 3.52e+00 3.88e+05  -6.0 1.18e+03    -  5.51e-04 2.23e-05h  1
  23 -6.0100802e+00 3.03e+00 1.85e+05  -6.0 5.42e+02    -  4.48e-01 6.15e-01h  1
  24 -6.0099782e+00 2.80e+00 9.64e+04  -6.0 8.59e+02    -  5.88e-02 3.56e-01H  1
  25 -6.0141720e+00 2.50e+00 5.16e+04  -6.0 4.72e+02    -  4.27e-01 4.64e-01h  1
  26 -6.0212068e+00 1.00e+00 1.18e+04  -6.0 2.52e+02    -  4.51e-01 8.68e-01h  1
  27 -6.0204966e+00 1.79e-01 1.52e+04  -6.0 6.42e+01  -5.0 2.39e-02 1.00e+00h  1
  28 -6.0299585e+00 6.40e-01 1.13e+01  -6.0 1.50e+02    -  1.00e+00 1.00e+00h  1
  29 -6.0288929e+00 5.38e-04 6.40e+02  -6.0 3.55e+00  -5.4 6.28e-01 1.00e+00h  1
iter    objective    inf_pr   inf_du lg(mu)  ||d||  lg(rg) alpha_du alpha_pr  ls
  30 -6.0292579e+00 3.82e-03 1.78e-01  -6.0 9.42e+00  -5.9 1.00e+00 1.00e+00h  1
  31 -6.0300668e+00 1.50e-02 6.35e-01  -6.0 1.86e+01  -6.4 1.00e+00 1.00e+00h  1
  32 -6.0318882e+00 1.25e-01 1.31e+00  -6.0 6.49e+01  -6.9 1.00e+00 1.00e+00h  1
  33 -6.0373686e+00 1.44e+00 5.33e+00  -6.0 2.76e+02  -7.3 8.11e-01 7.91e-01h  1
  34 -6.0364631e+00 2.55e-01 4.91e+01  -6.0 1.30e+02    -  1.00e+00 1.00e+00h  1
  35 -6.0427744e+00 1.39e+00 4.15e+02  -6.0 3.47e+03  -7.8 6.11e-02 5.98e-02h  1
  36 -6.0486370e+00 1.00e+00 3.26e+04  -6.0 2.08e+02    -  1.00e+00 6.29e-01h  1
  37 -6.0506246e+00 2.67e+00 4.03e+05  -6.0 2.06e+03    -  5.53e-02 2.00e-01h  1
  38 -6.0506430e+00 2.66e+00 4.04e+05  -6.0 1.27e+04    -  2.83e-02 2.29e-04h  1
  39 -6.0517851e+00 6.81e+00 4.43e+05  -6.0 1.00e+04    -  9.88e-02 5.23e-02f  1
iter    objective    inf_pr   inf_du lg(mu)  ||d||  lg(rg) alpha_du alpha_pr  ls
  40 -6.0531493e+00 6.17e+00 2.86e+05  -6.0 6.22e+02    -  5.35e-03 1.03e-01h  1
  41 -6.0648690e+00 1.43e+00 6.63e+05  -6.0 2.25e+02    -  3.01e-01 1.00e+00h  1
  42 -6.0698161e+00 1.23e+00 4.65e+05  -6.0 3.94e+02    -  2.98e-01 3.00e-01h  1
  43r-6.0698161e+00 1.23e+00 1.00e+03   0.1 0.00e+00    -  0.00e+00 2.03e-07R  2
  44r-6.0827166e+00 1.23e+00 1.00e+03   0.1 1.08e+04    -  6.82e-06 1.52e-06f  1
  45 -6.0824157e+00 1.21e+00 1.09e+06  -6.0 1.24e+01    -  6.92e-01 1.80e-02h  1
  46 -6.0777982e+00 8.78e-01 1.66e+07  -6.0 1.45e+01    -  1.80e-02 2.72e-01h  1
  47 -6.0650810e+00 2.79e-02 3.33e+02  -6.0 1.17e+01    -  5.00e-01 1.00e+00h  1
  48 -6.0659562e+00 2.66e-04 9.93e+00  -6.0 1.29e+00    -  9.40e-01 1.00e+00h  1
  49 -6.0680150e+00 7.48e-04 1.21e+00  -6.0 4.81e+00    -  8.88e-01 1.00e+00h  1
iter    objective    inf_pr   inf_du lg(mu)  ||d||  lg(rg) alpha_du alpha_pr  ls
  50 -6.0680707e+00 5.31e-02 6.50e-01  -6.0 2.45e+01    -  9.49e-01 1.00e+00h  1
  51 -6.0694048e+00 3.34e-01 5.63e-01  -6.0 3.75e+01  -6.5 9.62e-01 1.00e+00h  1
  52 -6.0726836e+00 3.68e-01 1.25e+01  -6.0 3.08e+02    -  8.76e-01 4.59e-01h  1
  53 -6.0741930e+00 3.89e-01 9.07e+00  -6.0 3.16e+02  -7.0 9.37e-03 1.97e-01h  1
  54 -6.0730004e+00 2.74e-01 9.08e+03  -6.0 2.45e+01  -7.4 1.00e+00 2.96e-01h  1
  55 -6.0723382e+00 9.17e-01 1.15e+04  -6.0 2.45e+02    -  3.36e-01 1.00e+00h  1
  56 -6.0713930e+00 2.36e-02 2.53e+03  -6.0 2.73e+01    -  7.36e-01 1.00e+00h  1
  57 -6.0714302e+00 8.99e-02 2.55e+01  -6.0 7.39e+01  -7.9 5.41e-01 1.00e+00h  1
  58 -6.0715411e+00 1.19e-01 2.77e+01  -6.0 6.20e+03  -7.5 4.96e-03 6.86e-03h  1
  59 -6.0720855e+00 5.24e-02 1.02e+00  -6.0 5.92e+01  -7.1 1.00e+00 1.00e+00f  1
iter    objective    inf_pr   inf_du lg(mu)  ||d||  lg(rg) alpha_du alpha_pr  ls
  60 -6.0725689e+00 1.01e-02 9.82e-02  -6.0 2.47e+01  -6.6 1.00e+00 1.00e+00h  1
  61 -6.0745896e+00 3.03e-01 3.19e+00  -6.0 1.35e+02  -7.1 9.62e-01 1.00e+00h  1
  62 -6.0919378e+00 7.46e+00 7.77e+01  -6.0 4.70e+05  -7.6 4.59e-04 1.40e-03f  1
  63 -6.1478034e+00 9.87e+00 3.52e+03  -6.0 4.00e+03    -  9.94e-02 3.99e-01h  1
  64 -6.1487937e+00 9.59e+00 3.23e+03  -6.0 4.55e+02  -6.3 3.31e-02 2.83e-02h  1
  65 -6.1491752e+00 7.55e+00 9.73e+02  -6.0 1.78e+03    -  5.11e-01 3.27e-01h  1
  66 -6.1507558e+00 5.50e+00 6.58e+03  -6.0 1.12e+03    -  7.70e-01 4.71e-01h  1
  67 -6.1535611e+00 4.36e+00 7.12e+02  -6.0 7.83e+02    -  5.00e-01 6.00e-01h  1
  68 -6.1542083e+00 1.39e+01 1.02e+03  -6.0 1.62e+03    -  1.60e-01 1.35e-01h  1
  69 -6.1581970e+00 1.42e+01 4.40e+04  -6.0 1.97e+03  -4.0 2.61e-05 4.12e-01h  1
iter    objective    inf_pr   inf_du lg(mu)  ||d||  lg(rg) alpha_du alpha_pr  ls
  70 -6.1585722e+00 1.30e+01 7.22e+03  -6.0 1.05e+01  -4.5 5.89e-01 8.42e-02h  1
  71 -6.1594041e+00 1.18e+01 4.61e+03  -6.0 1.09e+03    -  8.45e-02 9.58e-02h  1
  72 -6.1603865e+00 1.05e+01 1.43e+05  -6.0 1.01e+03    -  8.16e-01 1.11e-01h  1
  73 -6.1673005e+00 6.00e-02 4.20e+04  -6.0 6.94e+00  -5.0 3.35e-01 1.00e+00h  1
  74 -6.1689062e+00 3.93e-01 1.19e+05  -6.0 2.15e+03    -  1.75e-01 7.36e-02h  1
  75 -6.1689376e+00 3.92e-01 2.26e+04  -6.0 1.73e+01  -5.5 1.21e-01 3.29e-03h  1
  76 -6.1689728e+00 3.86e-01 6.60e+06  -6.0 4.58e+01  -5.9 5.11e-04 1.67e-02h  1
  77 -6.1731674e+00 4.73e+00 3.79e+06  -6.0 1.26e+03    -  8.59e-03 4.24e-01f  1
  78 -6.1732430e+00 4.61e+00 3.69e+06  -6.0 3.11e+01  -6.4 1.05e-01 2.59e-02h  1
  79 -6.1749954e+00 4.50e+00 1.52e+06  -6.0 8.30e+02    -  1.03e-02 5.87e-01f  1
iter    objective    inf_pr   inf_du lg(mu)  ||d||  lg(rg) alpha_du alpha_pr  ls
  80 -6.1756458e+00 1.85e+00 6.22e+05  -6.0 1.02e+01  -6.9 1.00e+00 5.90e-01h  1
  81 -6.1771472e+00 6.28e+00 3.42e+05  -6.0 1.27e+03    -  1.30e-02 4.51e-01h  1
  82 -6.1767541e+00 1.58e-02 4.17e+02  -6.0 2.97e+01  -7.4 4.01e-01 1.00e+00h  1
  83 -6.1768982e+00 9.32e-03 3.18e+01  -6.0 3.53e+01  -6.9 4.04e-01 1.00e+00h  1
  84 -6.1814518e+00 4.05e+00 2.01e+02  -6.0 4.95e+02  -7.4 1.43e-01 1.00e+00h  1
  85 -6.1831821e+00 4.00e+00 1.80e+02  -6.0 3.02e+03  -7.9 8.06e-02 1.62e-02h  1
  86 -6.2070513e+00 1.77e+00 2.56e+01  -6.0 5.34e+02  -7.5 9.68e-01 1.00e+00h  1
  87 -6.2161409e+00 1.70e+00 2.87e+01  -6.0 3.37e+03    -  1.78e-01 1.07e-01h  1
  88 -6.2257451e+00 1.43e+00 5.12e+01  -6.0 2.19e+03    -  8.33e-02 2.24e-01h  1
  89 -6.2447809e+00 2.02e+01 1.00e+02  -6.0 1.64e+03    -  6.36e-01 8.05e-01h  1
iter    objective    inf_pr   inf_du lg(mu)  ||d||  lg(rg) alpha_du alpha_pr  ls
  90 -6.2301683e+00 1.93e+01 9.25e+02  -6.0 1.68e+03  -7.1 1.33e-01 4.62e-02h  2
  91 -6.2449076e+00 1.87e+01 9.32e+02  -6.0 1.52e+03  -6.6 2.72e-02 3.02e-02h  1
  92 -6.2422753e+00 6.86e+00 4.41e+02  -6.0 6.59e+02    -  2.97e-01 7.31e-01h  1
  93 -6.2418196e+00 5.46e+00 1.44e+03  -6.0 1.06e+03    -  5.06e-01 2.09e-01h  1
  94 -6.2405162e+00 4.31e+00 1.02e+03  -6.0 6.75e+02    -  9.33e-01 7.63e-01h  1
  95 -6.2410424e+00 3.26e+00 3.05e+03  -6.0 4.86e+02    -  5.05e-01 3.53e-01h  1
  96 -6.2431569e+00 3.48e+00 2.12e+02  -6.0 4.69e+02    -  1.00e+00 1.00e+00h  1
  97 -6.2444807e+00 2.64e+00 6.27e+03  -6.0 4.22e+02    -  4.02e-01 3.31e-01h  1
  98 -6.2488487e+00 3.21e+00 1.70e+03  -6.0 4.45e+02    -  1.00e+00 1.00e+00h  1
  99 -6.2489918e+00 3.13e+00 3.90e+03  -6.0 7.66e+02    -  1.10e-02 2.50e-02h  1
iter    objective    inf_pr   inf_du lg(mu)  ||d||  lg(rg) alpha_du alpha_pr  ls
 100 -6.2493084e+00 2.36e-01 1.92e+08  -6.0 5.21e+01  -7.1 1.12e-03 1.00e+00f  1
 101 -6.2501570e+00 1.94e-01 1.52e+08  -6.0 7.79e+01  -7.6 9.49e-01 2.09e-01h  1
 102 -6.2526384e+00 2.05e+00 1.63e+04  -6.0 2.09e+02    -  7.71e-01 1.00e+00f  1
 103 -6.2506496e+00 2.45e+00 4.59e+01  -6.0 3.87e+02    -  1.93e-01 1.00e+00h  1
 104 -6.2516927e+00 2.51e-02 1.22e+02  -6.0 1.24e+02  -7.2 2.84e-01 1.00e+00h  1
 105 -6.2643712e+00 6.48e+00 1.68e+02  -6.0 7.46e+02  -7.6 2.04e-01 1.00e+00h  1
 106 -6.2650005e+00 6.21e+00 1.46e+02  -6.0 6.99e+02  -8.1 3.82e-01 4.16e-02h  1
 107 -6.2749447e+00 3.82e+00 9.32e+01  -6.0 1.21e+03  -8.6 9.76e-01 3.87e-01h  1
 108 -6.2854392e+00 2.01e+00 4.87e+01  -6.0 1.59e+03    -  4.79e-01 4.79e-01h  1
 109 -6.2907309e+00 3.33e+00 2.05e+01  -6.0 9.41e+02    -  1.00e+00 1.00e+00h  1
iter    objective    inf_pr   inf_du lg(mu)  ||d||  lg(rg) alpha_du alpha_pr  ls
 110 -6.2877681e+00 1.44e+00 2.53e+00  -6.0 2.74e+02    -  6.01e-01 1.00e+00h  1
 111 -6.2876951e+00 1.41e-02 7.64e-04  -6.0 2.05e+01    -  1.00e+00 1.00e+00h  1
 112 -6.2878055e+00 6.34e-01 1.93e+00  -6.0 3.10e+02    -  1.00e+00 6.76e-01h  1
 113 -6.2877536e+00 1.04e-01 1.93e-02  -6.0 8.47e+01    -  1.00e+00 1.00e+00h  1
 114 -6.2878931e+00 3.07e+00 4.34e-01  -6.0 4.69e+02  -9.1 1.00e+00 9.84e-01h  1
 115 -6.2878014e+00 3.05e+00 2.41e+00  -6.0 1.29e+03    -  4.57e-02 1.25e-01h  4
 116 -6.2877163e+00 6.86e-03 2.75e+04  -6.0 7.36e+02    -  1.00e+00 1.00e+00H  1
 117 -6.2877069e+00 3.77e-04 2.05e-03  -6.0 4.69e+00  -6.8 1.00e+00 1.00e+00h  1
 118 -6.2878328e+00 9.57e-01 2.51e+01  -6.0 1.50e+03    -  1.00e+00 1.71e-01h  1
 119 -6.2878254e+00 2.51e+00 1.37e+01  -6.0 7.55e+02    -  1.68e-01 5.00e-01h  2
iter    objective    inf_pr   inf_du lg(mu)  ||d||  lg(rg) alpha_du alpha_pr  ls
 120 -6.2878854e+00 1.93e+00 4.57e-01  -6.0 3.68e+02    -  1.00e+00 1.00e+00h  1
 121 -6.2877812e+00 1.72e-01 4.28e-02  -6.0 1.12e+02    -  1.00e+00 1.00e+00h  1
 122 -6.2877837e+00 1.07e-01 1.44e-02  -6.0 8.67e+01    -  9.92e-01 1.00e+00h  1
 123 -6.2877777e+00 2.13e-05 1.91e-06  -6.0 1.33e+00    -  1.00e+00 1.00e+00h  1
 124 -6.2877777e+00 2.84e-09 4.59e-10  -6.0 1.41e-02    -  1.00e+00 1.00e+00h  1
 125 -6.2878551e+00 1.55e-02 5.13e+01  -7.5 5.00e+01    -  9.55e-01 7.77e-01h  1
 126 -6.2878566e+00 2.90e-03 7.48e+00  -7.5 1.19e+01    -  1.00e+00 8.84e-01h  1
 127 -6.2878555e+00 1.79e-05 5.26e-03  -7.5 1.38e+00    -  1.00e+00 1.00e+00h  1
 128 -6.2878555e+00 1.58e-10 1.13e-09  -7.5 5.00e-04    -  1.00e+00 1.00e+00h  1
 129 -6.2878570e+00 1.93e-05 6.74e-01  -9.0 1.63e+00    -  9.21e-01 8.47e-01h  1
iter    objective    inf_pr   inf_du lg(mu)  ||d||  lg(rg) alpha_du alpha_pr  ls
 130 -6.2878573e+00 6.28e-07 4.89e-01  -9.0 2.50e-01    -  8.81e-01 1.00e+00f  1
 131 -6.2878573e+00 2.85e-10 1.69e-08  -9.0 3.54e-05    -  1.00e+00 1.00e+00h  1
 132 -6.2878573e+00 2.85e-10 2.47e-10  -9.0 9.24e-06    -  1.00e+00 1.00e+00h  1

Number of Iterations....: 132

                                   (scaled)                 (unscaled)
Objective...............:  -4.9123885313837956e+00   -6.2878573201712582e+00
Dual infeasibility......:   2.4743362936974388e-10    3.1671504559327215e-10
Constraint violation....:   2.8535538341978306e-10    2.8535538341978306e-10
Complementarity.........:   9.2249851191824358e-10    1.1807980952553517e-09
Overall NLP error.......:   9.2249851191824358e-10    1.1807980952553517e-09


Number of objective function evaluations             = 147
Number of objective gradient evaluations             = 133
Number of equality constraint evaluations            = 147
Number of inequality constraint evaluations          = 147
Number of equality constraint Jacobian evaluations   = 134
Number of inequality constraint Jacobian evaluations = 134
Number of Lagrangian Hessian evaluations             = 132
Total CPU secs in IPOPT (w/o function evaluations)   =    336.437
Total CPU secs in NLP function evaluations           =      6.068

EXIT: Optimal Solution Found.
